100
32
18
14
3
15
11
6
1
6
25
23
29
4
13
7
4
2
28
1
12
7
7
3
16
32
18
16
13
10
29
8
26
21
17
5
25
28
12
24
28
1
10
20
32
23
5
31
21
18
32
29
32
25
6
7
27
1
19
26
27
8
17
3
4
22
31
27
4
28
27
21
23
18
12
19
7
11
5
18
16
17
15
6
4
12
19
27
19
19
1
2
29
23
31
13
4
7
14
32
29
17